
set SET0 := A9 A8 A7;
set SET1 := 1 2 3;
set SET3 := 1 2;
set SET4 := 1 2;

param m := 1.0;
param n := 2;
param : capacity :=
9 1
8 2
7 3
;
param : Xcapacity :=
9 1
8 2
7 3
;
param Ycapacity := 1.0;
param Zcapacity := 1.0;
param Acapacity := 1;


